************************************************************************
file with basedata            : j60_50.bas
initial value random generator: 5962
************************************************************************
projects                      :  1
jobs (incl. supersource/sink ):  62
horizon                       :  329
RESOURCES
  - renewable                 :  4   R
  - nonrenewable              :  0   N
  - doubly constrained        :  0   D
************************************************************************
PROJECT INFORMATION:
pronr.  #jobs rel.date duedate tardcost  MPM-Time
    1     60      0       67       55       67
************************************************************************
PRECEDENCE RELATIONS:
jobnr.    #modes  #successors   successors
   1        1          3           2   3   4
   2        1          2          12  55
   3        1          3           5  31  38
   4        1          3           6   7  17
   5        1          3           8   9  12
   6        1          3          10  13  15
   7        1          3          11  22  32
   8        1          2          14  23
   9        1          3          11  16  45
  10        1          3          28  35  43
  11        1          3          26  29  57
  12        1          2          28  36
  13        1          3          21  24  50
  14        1          2          18  52
  15        1          3          23  34  40
  16        1          2          25  27
  17        1          3          20  31  33
  18        1          1          19
  19        1          1          45
  20        1          3          26  32  37
  21        1          3          33  34  35
  22        1          3          23  30  43
  23        1          2          50  60
  24        1          3          25  28  35
  25        1          3          46  52  55
  26        1          3          27  42  54
  27        1          1          44
  28        1          2          33  37
  29        1          2          30  37
  30        1          2          36  39
  31        1          3          41  49  58
  32        1          2          34  38
  33        1          2          39  40
  34        1          3          36  47  48
  35        1          3          38  40  53
  36        1          1          41
  37        1          1          39
  38        1          3          41  44  47
  39        1          3          46  48  52
  40        1          3          42  44  49
  41        1          3          42  46  56
  42        1          1          59
  43        1          3          45  53  57
  44        1          1          51
  45        1          2          47  48
  46        1          1          61
  47        1          3          49  54  55
  48        1          2          51  60
  49        1          1          51
  50        1          1          57
  51        1          1          56
  52        1          3          53  54  58
  53        1          1          60
  54        1          1          56
  55        1          2          58  61
  56        1          1          61
  57        1          1          59
  58        1          1          59
  59        1          1          62
  60        1          1          62
  61        1          1          62
  62        1          0        
************************************************************************
REQUESTS/DURATIONS:
jobnr. mode duration  R 1  R 2  R 3  R 4
------------------------------------------------------------------------
  1      1     0       0    0    0    0
  2      1     4       0    0    5    0
  3      1     7       0    0    3    0
  4      1     8       0    4    0    0
  5      1     2       9    0    0    0
  6      1     1       3    0    0    0
  7      1     9       0    0    0    6
  8      1     6       0    0    8    0
  9      1     6       0    0    0    1
 10      1     3       0    1    0    0
 11      1     6      10    0    0    0
 12      1     7       0    5    0    0
 13      1     5       0    0    9    0
 14      1     3       0    0    0    8
 15      1    10       9    0    0    0
 16      1    10       0    0    0    9
 17      1     8       0    0    7    0
 18      1     2       0    0    8    0
 19      1    10       0    0    0    4
 20      1     6       0    0    1    0
 21      1     4       4    0    0    0
 22      1     7       0    4    0    0
 23      1     9       0   10    0    0
 24      1     3       0    0    5    0
 25      1    10       9    0    0    0
 26      1     8       1    0    0    0
 27      1     9       0    0    7    0
 28      1     1       0    0    0    6
 29      1    10       0    0    1    0
 30      1     1       0    0    0    3
 31      1     1       0    0   10    0
 32      1    10       0    0    0    6
 33      1     7       0    0    3    0
 34      1     3       0    0    0    1
 35      1     2       0    0    6    0
 36      1     1       0    0    7    0
 37      1     7       0    0   10    0
 38      1    10       0    0    0   10
 39      1     5       0    0    1    0
 40      1     6       2    0    0    0
 41      1     4       9    0    0    0
 42      1    10       0    0    0    3
 43      1     7       0    0    7    0
 44      1     3       0    5    0    0
 45      1     2       9    0    0    0
 46      1     8       5    0    0    0
 47      1     1       0    0    0    6
 48      1     6       0    0    2    0
 49      1     8       0    0    9    0
 50      1     2       9    0    0    0
 51      1     3       0    0    0    1
 52      1     1       0    0    9    0
 53      1    10       4    0    0    0
 54      1     4       0    5    0    0
 55      1     6       9    0    0    0
 56      1     3       3    0    0    0
 57      1     5       1    0    0    0
 58      1     7       0    7    0    0
 59      1     1       0    0    0    8
 60      1     1       0    0    0    7
 61      1    10       0    9    0    0
 62      1     0       0    0    0    0
************************************************************************
RESOURCEAVAILABILITIES:
  R 1  R 2  R 3  R 4
   17   11   17   17
************************************************************************
